Pt  C  H                                
   1.00000000000000     
     9.5968605120372601   -5.5407499999999903    0.0000000000000040
     0.0000000000000000   11.0815000000000001    0.0000000000000000
    -0.0000000000000020    0.0000000000000000   26.7860000000000014
   Pt   C    H 
    64     6     6
Selective dynamics
Direct
  0.0051755506162009  0.0051246314558654  0.2539415656708678   T   T   T
  0.0009283843271759  0.2521000264191643  0.2540387864453744   T   T   T
  0.0009098986618293  0.5021115034236076  0.2540459424499693   T   T   T
  0.0050154431478179  0.7530328905244347  0.2541472708766380   T   T   T
  0.2510275122128313  0.0022960364268118  0.2552285476034637   T   T   T
  0.2481278239440428  0.2483317784452629  0.2543405646802759   T   T   T
  0.2431442483624291  0.4982134673190231  0.2523006295144428   T   T   T
  0.2477583892991374  0.7530597070639486  0.2541177722579151   T   T   T
  0.4997462905529572  0.0052064297605557  0.2539272270876567   T   T   T
  0.5000076069580165  0.2483756964207476  0.2543603689176879   T   T   T
  0.7548222767902721  0.0098678547893730  0.2518427667927425   T   T   T
  0.7509251810401829  0.2521173344073278  0.2540554557486698   T   T   T
  0.7547631481134438  0.4981896157479838  0.2523669578717127   T   T   T
  0.1679625132958308  0.0841599217935177  0.1678796391235187   T   T   T
  0.1678973952835117  0.3338816724572450  0.1677769634569041   T   T   T
  0.1676274005104327  0.5853418868392644  0.1677311091227297   T   T   T
  0.1676559657390189  0.8355038841105337  0.1678498707908411   T   T   T
  0.4160832963615058  0.0841825108112347  0.1678758614964234   T   T   T
  0.4193429071845019  0.3388016758114556  0.1700862283766118   T   T   T
  0.4192951671868065  0.5854102707327373  0.1711430470507407   T   T   T
  0.4190724906866085  0.8322045137512791  0.1697761396318455   T   T   T
  0.6659652500769934  0.0839348030839553  0.1676070511000944   T   T   T
  0.6658648070604898  0.3339185810364063  0.1677832208706859   T   T   T
  0.6659500568905014  0.5854117648273961  0.1711718795823605   T   T   T
  0.6659860038835800  0.8321035104302331  0.1709896034087806   T   T   T
  0.9178146636015840  0.0838791279875821  0.1676136999202890   T   T   T
  0.9170880507707126  0.3343050992480408  0.1681086037609793   T   T   T
  0.9174988489450380  0.5853375059506173  0.1677482985403023   T   T   T
  0.9129363466655775  0.8321723231478126  0.1698056320619545   T   T   T
  0.0833333333333357  0.1666666666666643  0.0844471165038811   F   F   F
  0.0833333333333357  0.4166666666666643  0.0844471165038811   F   F   F
  0.0833333333333357  0.6666666666666643  0.0844471165038811   F   F   F
  0.0833333333333357  0.9166666666666643  0.0844471165038811   F   F   F
  0.3333333333333357  0.1666666666666643  0.0844471165038811   F   F   F
  0.3333333333333357  0.4166666666666643  0.0844471165038811   F   F   F
  0.3333333333333357  0.6666666666666643  0.0844471165038811   F   F   F
  0.3333333333333357  0.9166666666666643  0.0844471165038811   F   F   F
  0.5833333333333357  0.1666666666666643  0.0844471165038811   F   F   F
  0.5833333333333357  0.4166666666666643  0.0844471165038811   F   F   F
  0.5833333333333357  0.6666666666666643  0.0844471165038811   F   F   F
  0.5833333333333357  0.9166666666666643  0.0844471165038811   F   F   F
  0.8333333333333357  0.1666666666666643  0.0844471165038811   F   F   F
  0.8333333333333357  0.4166666666666643  0.0844471165038811   F   F   F
  0.8333333333333357  0.6666666666666643  0.0844471165038811   F   F   F
  0.8333333333333357  0.9166666666666643  0.0844471165038811   F   F   F
  0.0000000000000000  0.0000000000000000  0.0000000000000000   F   F   F
  0.0000000000000000  0.2500000000000000  0.0000000000000000   F   F   F
  0.0000000000000000  0.5000000000000000  0.0000000000000000   F   F   F
  0.0000000000000000  0.7500000000000000  0.0000000000000000   F   F   F
  0.2500000000000000  0.0000000000000000  0.0000000000000000   F   F   F
  0.2500000000000000  0.2500000000000000  0.0000000000000000   F   F   F
  0.2500000000000000  0.5000000000000000  0.0000000000000000   F   F   F
  0.2500000000000000  0.7500000000000000  0.0000000000000000   F   F   F
  0.5000000000000000  0.0000000000000000  0.0000000000000000   F   F   F
  0.5000000000000000  0.2500000000000000  0.0000000000000000   F   F   F
  0.5000000000000000  0.5000000000000000  0.0000000000000000   F   F   F
  0.5000000000000000  0.7500000000000000  0.0000000000000000   F   F   F
  0.7500000000000000  0.0000000000000000  0.0000000000000000   F   F   F
  0.7500000000000000  0.2500000000000000  0.0000000000000000   F   F   F
  0.7500000000000000  0.5000000000000000  0.0000000000000000   F   F   F
  0.7500000000000000  0.7500000000000000  0.0000000000000000   F   F   F
  0.4971653592223987  0.4946834974738858  0.2611630234349201   T   T   T
  0.4967260840444888  0.7564101881655335  0.2604498611217093   T   T   T
  0.7592848683696856  0.7563182370343241  0.2605193903519565   T   T   T
  0.7168071692652154  0.8018028280416748  0.3362200471662667   T   T   T
  0.7166436289904415  0.6724536247477949  0.3367570840419868   T   T   T
  0.5842198848479974  0.5401494374414888  0.3371302918958596   T   T   T
  0.4550312638329551  0.5402739884146527  0.3371021433757637   T   T   T
  0.4551898169691371  0.6726994936964539  0.3366968890350782   T   T   T
  0.5845022856967892  0.8018920609549696  0.3361843339382228   T   T   T
  0.8086241908909682  0.6707940348939861  0.3503699455002366   T   T   T
  0.5863959325707356  0.4486861678376106  0.3510271147278104   T   T   T
  0.5869220413329586  0.8963807274415356  0.3492310825566816   T   T   T
  0.3616304214702785  0.6712660913233424  0.3502591795736894   T   T   T
  0.3612750002925620  0.4488963506225667  0.3509723491221804   T   T   T
  0.8089107986434770  0.8961742376515702  0.3493257254694447   T   T   T
 
  0.00000000E+00  0.00000000E+00  0.00000000E+00
  0.00000000E+00  0.00000000E+00  0.00000000E+00
  0.00000000E+00  0.00000000E+00  0.00000000E+00
  0.00000000E+00  0.00000000E+00  0.00000000E+00
  0.00000000E+00  0.00000000E+00  0.00000000E+00
  0.00000000E+00  0.00000000E+00  0.00000000E+00
  0.00000000E+00  0.00000000E+00  0.00000000E+00
  0.00000000E+00  0.00000000E+00  0.00000000E+00
  0.00000000E+00  0.00000000E+00  0.00000000E+00
  0.00000000E+00  0.00000000E+00  0.00000000E+00
  0.00000000E+00  0.00000000E+00  0.00000000E+00
  0.00000000E+00  0.00000000E+00  0.00000000E+00
  0.00000000E+00  0.00000000E+00  0.00000000E+00
  0.00000000E+00  0.00000000E+00  0.00000000E+00
  0.00000000E+00  0.00000000E+00  0.00000000E+00
  0.00000000E+00  0.00000000E+00  0.00000000E+00
  0.00000000E+00  0.00000000E+00  0.00000000E+00
  0.00000000E+00  0.00000000E+00  0.00000000E+00
  0.00000000E+00  0.00000000E+00  0.00000000E+00
  0.00000000E+00  0.00000000E+00  0.00000000E+00
  0.00000000E+00  0.00000000E+00  0.00000000E+00
  0.00000000E+00  0.00000000E+00  0.00000000E+00
  0.00000000E+00  0.00000000E+00  0.00000000E+00
  0.00000000E+00  0.00000000E+00  0.00000000E+00
  0.00000000E+00  0.00000000E+00  0.00000000E+00
  0.00000000E+00  0.00000000E+00  0.00000000E+00
  0.00000000E+00  0.00000000E+00  0.00000000E+00
  0.00000000E+00  0.00000000E+00  0.00000000E+00
  0.00000000E+00  0.00000000E+00  0.00000000E+00
  0.00000000E+00  0.00000000E+00  0.00000000E+00
  0.00000000E+00  0.00000000E+00  0.00000000E+00
  0.00000000E+00  0.00000000E+00  0.00000000E+00
  0.00000000E+00  0.00000000E+00  0.00000000E+00
  0.00000000E+00  0.00000000E+00  0.00000000E+00
  0.00000000E+00  0.00000000E+00  0.00000000E+00
  0.00000000E+00  0.00000000E+00  0.00000000E+00
  0.00000000E+00  0.00000000E+00  0.00000000E+00
  0.00000000E+00  0.00000000E+00  0.00000000E+00
  0.00000000E+00  0.00000000E+00  0.00000000E+00
  0.00000000E+00  0.00000000E+00  0.00000000E+00
  0.00000000E+00  0.00000000E+00  0.00000000E+00
  0.00000000E+00  0.00000000E+00  0.00000000E+00
  0.00000000E+00  0.00000000E+00  0.00000000E+00
  0.00000000E+00  0.00000000E+00  0.00000000E+00
  0.00000000E+00  0.00000000E+00  0.00000000E+00
  0.00000000E+00  0.00000000E+00  0.00000000E+00
  0.00000000E+00  0.00000000E+00  0.00000000E+00
  0.00000000E+00  0.00000000E+00  0.00000000E+00
  0.00000000E+00  0.00000000E+00  0.00000000E+00
  0.00000000E+00  0.00000000E+00  0.00000000E+00
  0.00000000E+00  0.00000000E+00  0.00000000E+00
  0.00000000E+00  0.00000000E+00  0.00000000E+00
  0.00000000E+00  0.00000000E+00  0.00000000E+00
  0.00000000E+00  0.00000000E+00  0.00000000E+00
  0.00000000E+00  0.00000000E+00  0.00000000E+00
  0.00000000E+00  0.00000000E+00  0.00000000E+00
  0.00000000E+00  0.00000000E+00  0.00000000E+00
  0.00000000E+00  0.00000000E+00  0.00000000E+00
  0.00000000E+00  0.00000000E+00  0.00000000E+00
  0.00000000E+00  0.00000000E+00  0.00000000E+00
  0.00000000E+00  0.00000000E+00  0.00000000E+00
  0.00000000E+00  0.00000000E+00  0.00000000E+00
  0.00000000E+00  0.00000000E+00  0.00000000E+00
  0.00000000E+00  0.00000000E+00  0.00000000E+00
  0.00000000E+00  0.00000000E+00  0.00000000E+00
  0.00000000E+00  0.00000000E+00  0.00000000E+00
  0.00000000E+00  0.00000000E+00  0.00000000E+00
  0.00000000E+00  0.00000000E+00  0.00000000E+00
  0.00000000E+00  0.00000000E+00  0.00000000E+00
  0.00000000E+00  0.00000000E+00  0.00000000E+00
  0.00000000E+00  0.00000000E+00  0.00000000E+00
  0.00000000E+00  0.00000000E+00  0.00000000E+00
  0.00000000E+00  0.00000000E+00  0.00000000E+00
  0.00000000E+00  0.00000000E+00  0.00000000E+00
  0.00000000E+00  0.00000000E+00  0.00000000E+00
  0.00000000E+00  0.00000000E+00  0.00000000E+00
