Pt  C  H                                
   1.00000000000000     
     9.5968605120372601   -5.5407499999999903    0.0000000000000040
     0.0000000000000000   11.0815000000000001    0.0000000000000000
    -0.0000000000000020    0.0000000000000000   26.7860000000000014
   Pt   C    H 
    64     6     6
Selective dynamics
Direct
  0.9953030409358079  0.9954400994494718  0.2539626656995875   T   T   T
  0.9930268754625073  0.2482532474806930  0.2530461185907628   T   T   T
  0.0013204273086991  0.5002231419337823  0.2545841843523220   T   T   T
  0.0013541763215117  0.7496591700160292  0.2547108770421124   T   T   T
  0.2479093563799250  0.9934122204966115  0.2531184756985058   T   T   T
  0.2505041573256048  0.7496695395324293  0.2546101489564205   T   T   T
  0.4998819475450905  0.0018861987207084  0.2543636589068242   T   T   T
  0.5026261385048735  0.7583150959236670  0.2529314052176134   T   T   T
  0.7493645123472424  0.0016893649938928  0.2543877926564178   T   T   T
  0.7491500755772490  0.2508710231254823  0.2543889252034752   T   T   T
  0.7578418839989965  0.5029450566184515  0.2529684736544224   T   T   T
  0.7560872980680975  0.7561869006850090  0.2537511211595154   T   T   T
  0.1680430322029455  0.0859382451329086  0.1693355720199052   T   T   T
  0.1686369623476251  0.3331946493136032  0.1704442330003293   T   T   T
  0.1697439990163891  0.5806500823824366  0.1699969929203594   T   T   T
  0.1673037069700262  0.8325143606461096  0.1676799967197622   T   T   T
  0.4174722922844516  0.0864990506064695  0.1695585664514896   T   T   T
  0.4162101672783435  0.3342130023314116  0.1707983800037988   T   T   T
  0.4172060633171836  0.5819030778556055  0.1703207635736509   T   T   T
  0.4162506376373286  0.8338989067490766  0.1678090624800173   T   T   T
  0.6663248238301768  0.0839887608366476  0.1682970540203029   T   T   T
  0.6639078953272668  0.3328012836972303  0.1694824641658550   T   T   T
  0.6647709512136953  0.5825289324296304  0.1691350447149362   T   T   T
  0.6672227336075289  0.8338346283733326  0.1679265720193303   T   T   T
  0.9167077405727696  0.0832782587677092  0.1679702769967660   T   T   T
  0.9165399781392954  0.3340096444573801  0.1678381716063013   T   T   T
  0.9179776331693096  0.5831646570808198  0.1676376830723207   T   T   T
  0.9179720489123144  0.8328225021442928  0.1676103451540321   T   T   T
  0.0833333333333357  0.1666666666666643  0.0844471165038811   F   F   F
  0.0833333333333357  0.4166666666666643  0.0844471165038811   F   F   F
  0.0833333333333357  0.6666666666666643  0.0844471165038811   F   F   F
  0.0833333333333357  0.9166666666666643  0.0844471165038811   F   F   F
  0.3333333333333357  0.1666666666666643  0.0844471165038811   F   F   F
  0.3333333333333357  0.4166666666666643  0.0844471165038811   F   F   F
  0.3333333333333357  0.6666666666666643  0.0844471165038811   F   F   F
  0.3333333333333357  0.9166666666666643  0.0844471165038811   F   F   F
  0.5833333333333357  0.1666666666666714  0.0844471165038811   F   F   F
  0.5833333333333357  0.4166666666666643  0.0844471165038811   F   F   F
  0.5833333333333357  0.6666666666666643  0.0844471165038811   F   F   F
  0.5833333333333357  0.9166666666666643  0.0844471165038811   F   F   F
  0.8333333333333357  0.1666666666666714  0.0844471165038811   F   F   F
  0.8333333333333357  0.4166666666666714  0.0844471165038811   F   F   F
  0.8333333333333357  0.6666666666666643  0.0844471165038811   F   F   F
  0.8333333333333357  0.9166666666666643  0.0844471165038811   F   F   F
  0.0000000000000000  0.0000000000000000  0.0000000000000000   F   F   F
  0.0000000000000000  0.2500000000000000  0.0000000000000000   F   F   F
  0.0000000000000000  0.5000000000000000  0.0000000000000000   F   F   F
  0.0000000000000000  0.7500000000000000  0.0000000000000000   F   F   F
  0.2500000000000000  0.0000000000000000  0.0000000000000000   F   F   F
  0.2500000000000000  0.2500000000000000  0.0000000000000000   F   F   F
  0.2500000000000000  0.5000000000000000  0.0000000000000000   F   F   F
  0.2500000000000000  0.7500000000000000  0.0000000000000000   F   F   F
  0.5000000000000000  0.0000000000000000  0.0000000000000000   F   F   F
  0.5000000000000000  0.2500000000000000  0.0000000000000000   F   F   F
  0.5000000000000000  0.5000000000000000  0.0000000000000000   F   F   F
  0.5000000000000000  0.7500000000000000  0.0000000000000000   F   F   F
  0.7500000000000000  0.0000000000000000  0.0000000000000000   F   F   F
  0.7500000000000000  0.2500000000000000  0.0000000000000000   F   F   F
  0.7500000000000000  0.5000000000000000  0.0000000000000000   F   F   F
  0.7500000000000000  0.7500000000000000  0.0000000000000000   F   F   F
  0.2383096229000289  0.2399471012212217  0.2585176480825943   T   T   T
  0.4991385141869394  0.2523990114312393  0.2597417892734810   T   T   T
  0.2504368900559150  0.5008144724123617  0.2604340526589201   T   T   T
  0.5117052449308386  0.5135535088702506  0.2579314116976014   T   T   T
  0.4517182000489614  0.5271401808252181  0.3348870295826099   T   T   T
  0.5266937571513431  0.4527161974147601  0.3347116155935235   T   T   T
  0.4563965266341154  0.2992479328654318  0.3334518465361331   T   T   T
  0.3030436382664818  0.2286718497780779  0.3352564310808906   T   T   T
  0.2282256443566195  0.3032180898242273  0.3354045140383630   T   T   T
  0.2984172553945454  0.4565540652717072  0.3337569370737491   T   T   T
  0.6354492774887397  0.5083957800798753  0.3468401446805938   T   T   T
  0.5041644749311592  0.2527568856240588  0.3566280621358004   T   T   T
  0.2516484181530041  0.5039697815817621  0.3570185557260793   T   T   T
  0.1200081891238687  0.2481649667759810  0.3480448227755853   T   T   T
  0.2483072558285010  0.1204566905800703  0.3478614614272481   T   T   T
  0.5071482674367872  0.6358730422847254  0.3469888365752929   T   T   T
 
  0.00000000E+00  0.00000000E+00  0.00000000E+00
  0.00000000E+00  0.00000000E+00  0.00000000E+00
  0.00000000E+00  0.00000000E+00  0.00000000E+00
  0.00000000E+00  0.00000000E+00  0.00000000E+00
  0.00000000E+00  0.00000000E+00  0.00000000E+00
  0.00000000E+00  0.00000000E+00  0.00000000E+00
  0.00000000E+00  0.00000000E+00  0.00000000E+00
  0.00000000E+00  0.00000000E+00  0.00000000E+00
  0.00000000E+00  0.00000000E+00  0.00000000E+00
  0.00000000E+00  0.00000000E+00  0.00000000E+00
  0.00000000E+00  0.00000000E+00  0.00000000E+00
  0.00000000E+00  0.00000000E+00  0.00000000E+00
  0.00000000E+00  0.00000000E+00  0.00000000E+00
  0.00000000E+00  0.00000000E+00  0.00000000E+00
  0.00000000E+00  0.00000000E+00  0.00000000E+00
  0.00000000E+00  0.00000000E+00  0.00000000E+00
  0.00000000E+00  0.00000000E+00  0.00000000E+00
  0.00000000E+00  0.00000000E+00  0.00000000E+00
  0.00000000E+00  0.00000000E+00  0.00000000E+00
  0.00000000E+00  0.00000000E+00  0.00000000E+00
  0.00000000E+00  0.00000000E+00  0.00000000E+00
  0.00000000E+00  0.00000000E+00  0.00000000E+00
  0.00000000E+00  0.00000000E+00  0.00000000E+00
  0.00000000E+00  0.00000000E+00  0.00000000E+00
  0.00000000E+00  0.00000000E+00  0.00000000E+00
  0.00000000E+00  0.00000000E+00  0.00000000E+00
  0.00000000E+00  0.00000000E+00  0.00000000E+00
  0.00000000E+00  0.00000000E+00  0.00000000E+00
  0.00000000E+00  0.00000000E+00  0.00000000E+00
  0.00000000E+00  0.00000000E+00  0.00000000E+00
  0.00000000E+00  0.00000000E+00  0.00000000E+00
  0.00000000E+00  0.00000000E+00  0.00000000E+00
  0.00000000E+00  0.00000000E+00  0.00000000E+00
  0.00000000E+00  0.00000000E+00  0.00000000E+00
  0.00000000E+00  0.00000000E+00  0.00000000E+00
  0.00000000E+00  0.00000000E+00  0.00000000E+00
  0.00000000E+00  0.00000000E+00  0.00000000E+00
  0.00000000E+00  0.00000000E+00  0.00000000E+00
  0.00000000E+00  0.00000000E+00  0.00000000E+00
  0.00000000E+00  0.00000000E+00  0.00000000E+00
  0.00000000E+00  0.00000000E+00  0.00000000E+00
  0.00000000E+00  0.00000000E+00  0.00000000E+00
  0.00000000E+00  0.00000000E+00  0.00000000E+00
  0.00000000E+00  0.00000000E+00  0.00000000E+00
  0.00000000E+00  0.00000000E+00  0.00000000E+00
  0.00000000E+00  0.00000000E+00  0.00000000E+00
  0.00000000E+00  0.00000000E+00  0.00000000E+00
  0.00000000E+00  0.00000000E+00  0.00000000E+00
  0.00000000E+00  0.00000000E+00  0.00000000E+00
  0.00000000E+00  0.00000000E+00  0.00000000E+00
  0.00000000E+00  0.00000000E+00  0.00000000E+00
  0.00000000E+00  0.00000000E+00  0.00000000E+00
  0.00000000E+00  0.00000000E+00  0.00000000E+00
  0.00000000E+00  0.00000000E+00  0.00000000E+00
  0.00000000E+00  0.00000000E+00  0.00000000E+00
  0.00000000E+00  0.00000000E+00  0.00000000E+00
  0.00000000E+00  0.00000000E+00  0.00000000E+00
  0.00000000E+00  0.00000000E+00  0.00000000E+00
  0.00000000E+00  0.00000000E+00  0.00000000E+00
  0.00000000E+00  0.00000000E+00  0.00000000E+00
  0.00000000E+00  0.00000000E+00  0.00000000E+00
  0.00000000E+00  0.00000000E+00  0.00000000E+00
  0.00000000E+00  0.00000000E+00  0.00000000E+00
  0.00000000E+00  0.00000000E+00  0.00000000E+00
  0.00000000E+00  0.00000000E+00  0.00000000E+00
  0.00000000E+00  0.00000000E+00  0.00000000E+00
  0.00000000E+00  0.00000000E+00  0.00000000E+00
  0.00000000E+00  0.00000000E+00  0.00000000E+00
  0.00000000E+00  0.00000000E+00  0.00000000E+00
  0.00000000E+00  0.00000000E+00  0.00000000E+00
  0.00000000E+00  0.00000000E+00  0.00000000E+00
  0.00000000E+00  0.00000000E+00  0.00000000E+00
  0.00000000E+00  0.00000000E+00  0.00000000E+00
  0.00000000E+00  0.00000000E+00  0.00000000E+00
  0.00000000E+00  0.00000000E+00  0.00000000E+00
  0.00000000E+00  0.00000000E+00  0.00000000E+00
